(declare-fun limit_ack!146 () (_ BitVec 64))
(declare-fun a_ack!147 () (_ BitVec 64))
(declare-fun b_ack!142 () (_ BitVec 64))
(declare-fun epsabs_ack!144 () (_ BitVec 64))
(declare-fun epsrel_ack!145 () (_ BitVec 64))
(declare-fun c_ack!143 () (_ BitVec 64))
(declare-fun FPCHECK_FMUL_ACCURACY ((_ BitVec 64) (_ BitVec 64)) Bool)
(assert (not (bvult #x00000000000003e8 limit_ack!146)))
(assert (fp.lt ((_ to_fp 11 53) b_ack!142) ((_ to_fp 11 53) a_ack!147)))
(assert (fp.leq ((_ to_fp 11 53) epsabs_ack!144) ((_ to_fp 11 53) #x0000000000000000)))
(assert (not (fp.lt ((_ to_fp 11 53) epsrel_ack!145)
            ((_ to_fp 11 53) #x3d09000000000000))))
(assert (not (fp.lt ((_ to_fp 11 53) epsrel_ack!145)
            ((_ to_fp 11 53) #x3a0fb0f6be506019))))
(assert (not (fp.eq ((_ to_fp 11 53) c_ack!143) ((_ to_fp 11 53) a_ack!147))))
(assert (not (fp.eq ((_ to_fp 11 53) c_ack!143) ((_ to_fp 11 53) b_ack!142))))
(assert (FPCHECK_FMUL_ACCURACY #x4000000000000000 c_ack!143))

(check-sat)
(exit)
